c description: There is a graph of 6 vertices with a 5-clique and a 5-coloring
c generator: CNFgen (0.9.0)
c copyright: (C) 2012-2020 Massimo Lauria <massimo.lauria@uniroma1.it>
c url: https://massimolauria.net/cnfgen
c
p cnf 75 581
-16 -17 0
-16 -18 0
-16 -19 0
-16 -20 0
-16 -21 0
-17 -18 0
-17 -19 0
-17 -20 0
-17 -21 0
-18 -19 0
-18 -20 0
-18 -21 0
-19 -20 0
-19 -21 0
-20 -21 0
16 17 18 19 20 21 0
-22 -23 0
-22 -24 0
-22 -25 0
-22 -26 0
-22 -27 0
-23 -24 0
-23 -25 0
-23 -26 0
-23 -27 0
-24 -25 0
-24 -26 0
-24 -27 0
-25 -26 0
-25 -27 0
-26 -27 0
22 23 24 25 26 27 0
-28 -29 0
-28 -30 0
-28 -31 0
-28 -32 0
-28 -33 0
-29 -30 0
-29 -31 0
-29 -32 0
-29 -33 0
-30 -31 0
-30 -32 0
-30 -33 0
-31 -32 0
-31 -33 0
-32 -33 0
28 29 30 31 32 33 0
-34 -35 0
-34 -36 0
-34 -37 0
-34 -38 0
-34 -39 0
-35 -36 0
-35 -37 0
-35 -38 0
-35 -39 0
-36 -37 0
-36 -38 0
-36 -39 0
-37 -38 0
-37 -39 0
-38 -39 0
34 35 36 37 38 39 0
-40 -41 0
-40 -42 0
-40 -43 0
-40 -44 0
-40 -45 0
-41 -42 0
-41 -43 0
-41 -44 0
-41 -45 0
-42 -43 0
-42 -44 0
-42 -45 0
-43 -44 0
-43 -45 0
-44 -45 0
40 41 42 43 44 45 0
-16 -22 0
-16 -28 0
-16 -34 0
-16 -40 0
-22 -28 0
-22 -34 0
-22 -40 0
-28 -34 0
-28 -40 0
-34 -40 0
-17 -23 0
-17 -29 0
-17 -35 0
-17 -41 0
-23 -29 0
-23 -35 0
-23 -41 0
-29 -35 0
-29 -41 0
-35 -41 0
-18 -24 0
-18 -30 0
-18 -36 0
-18 -42 0
-24 -30 0
-24 -36 0
-24 -42 0
-30 -36 0
-30 -42 0
-36 -42 0
-19 -25 0
-19 -31 0
-19 -37 0
-19 -43 0
-25 -31 0
-25 -37 0
-25 -43 0
-31 -37 0
-31 -43 0
-37 -43 0
-20 -26 0
-20 -32 0
-20 -38 0
-20 -44 0
-26 -32 0
-26 -38 0
-26 -44 0
-32 -38 0
-32 -44 0
-38 -44 0
-21 -27 0
-21 -33 0
-21 -39 0
-21 -45 0
-27 -33 0
-27 -39 0
-27 -45 0
-33 -39 0
-33 -45 0
-39 -45 0
1 -16 -23 0
1 -16 -29 0
1 -16 -35 0
1 -16 -41 0
1 -22 -17 0
1 -22 -29 0
1 -22 -35 0
1 -22 -41 0
1 -28 -17 0
1 -28 -23 0
1 -28 -35 0
1 -28 -41 0
1 -34 -17 0
1 -34 -23 0
1 -34 -29 0
1 -34 -41 0
1 -40 -17 0
1 -40 -23 0
1 -40 -29 0
1 -40 -35 0
2 -16 -24 0
2 -16 -30 0
2 -16 -36 0
2 -16 -42 0
2 -22 -18 0
2 -22 -30 0
2 -22 -36 0
2 -22 -42 0
2 -28 -18 0
2 -28 -24 0
2 -28 -36 0
2 -28 -42 0
2 -34 -18 0
2 -34 -24 0
2 -34 -30 0
2 -34 -42 0
2 -40 -18 0
2 -40 -24 0
2 -40 -30 0
2 -40 -36 0
3 -16 -25 0
3 -16 -31 0
3 -16 -37 0
3 -16 -43 0
3 -22 -19 0
3 -22 -31 0
3 -22 -37 0
3 -22 -43 0
3 -28 -19 0
3 -28 -25 0
3 -28 -37 0
3 -28 -43 0
3 -34 -19 0
3 -34 -25 0
3 -34 -31 0
3 -34 -43 0
3 -40 -19 0
3 -40 -25 0
3 -40 -31 0
3 -40 -37 0
4 -16 -26 0
4 -16 -32 0
4 -16 -38 0
4 -16 -44 0
4 -22 -20 0
4 -22 -32 0
4 -22 -38 0
4 -22 -44 0
4 -28 -20 0
4 -28 -26 0
4 -28 -38 0
4 -28 -44 0
4 -34 -20 0
4 -34 -26 0
4 -34 -32 0
4 -34 -44 0
4 -40 -20 0
4 -40 -26 0
4 -40 -32 0
4 -40 -38 0
5 -16 -27 0
5 -16 -33 0
5 -16 -39 0
5 -16 -45 0
5 -22 -21 0
5 -22 -33 0
5 -22 -39 0
5 -22 -45 0
5 -28 -21 0
5 -28 -27 0
5 -28 -39 0
5 -28 -45 0
5 -34 -21 0
5 -34 -27 0
5 -34 -33 0
5 -34 -45 0
5 -40 -21 0
5 -40 -27 0
5 -40 -33 0
5 -40 -39 0
6 -17 -24 0
6 -17 -30 0
6 -17 -36 0
6 -17 -42 0
6 -23 -18 0
6 -23 -30 0
6 -23 -36 0
6 -23 -42 0
6 -29 -18 0
6 -29 -24 0
6 -29 -36 0
6 -29 -42 0
6 -35 -18 0
6 -35 -24 0
6 -35 -30 0
6 -35 -42 0
6 -41 -18 0
6 -41 -24 0
6 -41 -30 0
6 -41 -36 0
7 -17 -25 0
7 -17 -31 0
7 -17 -37 0
7 -17 -43 0
7 -23 -19 0
7 -23 -31 0
7 -23 -37 0
7 -23 -43 0
7 -29 -19 0
7 -29 -25 0
7 -29 -37 0
7 -29 -43 0
7 -35 -19 0
7 -35 -25 0
7 -35 -31 0
7 -35 -43 0
7 -41 -19 0
7 -41 -25 0
7 -41 -31 0
7 -41 -37 0
8 -17 -26 0
8 -17 -32 0
8 -17 -38 0
8 -17 -44 0
8 -23 -20 0
8 -23 -32 0
8 -23 -38 0
8 -23 -44 0
8 -29 -20 0
8 -29 -26 0
8 -29 -38 0
8 -29 -44 0
8 -35 -20 0
8 -35 -26 0
8 -35 -32 0
8 -35 -44 0
8 -41 -20 0
8 -41 -26 0
8 -41 -32 0
8 -41 -38 0
9 -17 -27 0
9 -17 -33 0
9 -17 -39 0
9 -17 -45 0
9 -23 -21 0
9 -23 -33 0
9 -23 -39 0
9 -23 -45 0
9 -29 -21 0
9 -29 -27 0
9 -29 -39 0
9 -29 -45 0
9 -35 -21 0
9 -35 -27 0
9 -35 -33 0
9 -35 -45 0
9 -41 -21 0
9 -41 -27 0
9 -41 -33 0
9 -41 -39 0
10 -18 -25 0
10 -18 -31 0
10 -18 -37 0
10 -18 -43 0
10 -24 -19 0
10 -24 -31 0
10 -24 -37 0
10 -24 -43 0
10 -30 -19 0
10 -30 -25 0
10 -30 -37 0
10 -30 -43 0
10 -36 -19 0
10 -36 -25 0
10 -36 -31 0
10 -36 -43 0
10 -42 -19 0
10 -42 -25 0
10 -42 -31 0
10 -42 -37 0
11 -18 -26 0
11 -18 -32 0
11 -18 -38 0
11 -18 -44 0
11 -24 -20 0
11 -24 -32 0
11 -24 -38 0
11 -24 -44 0
11 -30 -20 0
11 -30 -26 0
11 -30 -38 0
11 -30 -44 0
11 -36 -20 0
11 -36 -26 0
11 -36 -32 0
11 -36 -44 0
11 -42 -20 0
11 -42 -26 0
11 -42 -32 0
11 -42 -38 0
12 -18 -27 0
12 -18 -33 0
12 -18 -39 0
12 -18 -45 0
12 -24 -21 0
12 -24 -33 0
12 -24 -39 0
12 -24 -45 0
12 -30 -21 0
12 -30 -27 0
12 -30 -39 0
12 -30 -45 0
12 -36 -21 0
12 -36 -27 0
12 -36 -33 0
12 -36 -45 0
12 -42 -21 0
12 -42 -27 0
12 -42 -33 0
12 -42 -39 0
13 -19 -26 0
13 -19 -32 0
13 -19 -38 0
13 -19 -44 0
13 -25 -20 0
13 -25 -32 0
13 -25 -38 0
13 -25 -44 0
13 -31 -20 0
13 -31 -26 0
13 -31 -38 0
13 -31 -44 0
13 -37 -20 0
13 -37 -26 0
13 -37 -32 0
13 -37 -44 0
13 -43 -20 0
13 -43 -26 0
13 -43 -32 0
13 -43 -38 0
14 -19 -27 0
14 -19 -33 0
14 -19 -39 0
14 -19 -45 0
14 -25 -21 0
14 -25 -33 0
14 -25 -39 0
14 -25 -45 0
14 -31 -21 0
14 -31 -27 0
14 -31 -39 0
14 -31 -45 0
14 -37 -21 0
14 -37 -27 0
14 -37 -33 0
14 -37 -45 0
14 -43 -21 0
14 -43 -27 0
14 -43 -33 0
14 -43 -39 0
15 -20 -27 0
15 -20 -33 0
15 -20 -39 0
15 -20 -45 0
15 -26 -21 0
15 -26 -33 0
15 -26 -39 0
15 -26 -45 0
15 -32 -21 0
15 -32 -27 0
15 -32 -39 0
15 -32 -45 0
15 -38 -21 0
15 -38 -27 0
15 -38 -33 0
15 -38 -45 0
15 -44 -21 0
15 -44 -27 0
15 -44 -33 0
15 -44 -39 0
-46 -47 0
-46 -48 0
-46 -49 0
-46 -50 0
-47 -48 0
-47 -49 0
-47 -50 0
-48 -49 0
-48 -50 0
-49 -50 0
46 47 48 49 50 0
-51 -52 0
-51 -53 0
-51 -54 0
-51 -55 0
-52 -53 0
-52 -54 0
-52 -55 0
-53 -54 0
-53 -55 0
-54 -55 0
51 52 53 54 55 0
-56 -57 0
-56 -58 0
-56 -59 0
-56 -60 0
-57 -58 0
-57 -59 0
-57 -60 0
-58 -59 0
-58 -60 0
-59 -60 0
56 57 58 59 60 0
-61 -62 0
-61 -63 0
-61 -64 0
-61 -65 0
-62 -63 0
-62 -64 0
-62 -65 0
-63 -64 0
-63 -65 0
-64 -65 0
61 62 63 64 65 0
-66 -67 0
-66 -68 0
-66 -69 0
-66 -70 0
-67 -68 0
-67 -69 0
-67 -70 0
-68 -69 0
-68 -70 0
-69 -70 0
66 67 68 69 70 0
-71 -72 0
-71 -73 0
-71 -74 0
-71 -75 0
-72 -73 0
-72 -74 0
-72 -75 0
-73 -74 0
-73 -75 0
-74 -75 0
71 72 73 74 75 0
-1 -46 -51 0
-1 -47 -52 0
-1 -48 -53 0
-1 -49 -54 0
-1 -50 -55 0
-2 -46 -56 0
-2 -47 -57 0
-2 -48 -58 0
-2 -49 -59 0
-2 -50 -60 0
-3 -46 -61 0
-3 -47 -62 0
-3 -48 -63 0
-3 -49 -64 0
-3 -50 -65 0
-4 -46 -66 0
-4 -47 -67 0
-4 -48 -68 0
-4 -49 -69 0
-4 -50 -70 0
-5 -46 -71 0
-5 -47 -72 0
-5 -48 -73 0
-5 -49 -74 0
-5 -50 -75 0
-6 -51 -56 0
-6 -52 -57 0
-6 -53 -58 0
-6 -54 -59 0
-6 -55 -60 0
-7 -51 -61 0
-7 -52 -62 0
-7 -53 -63 0
-7 -54 -64 0
-7 -55 -65 0
-8 -51 -66 0
-8 -52 -67 0
-8 -53 -68 0
-8 -54 -69 0
-8 -55 -70 0
-9 -51 -71 0
-9 -52 -72 0
-9 -53 -73 0
-9 -54 -74 0
-9 -55 -75 0
-10 -56 -61 0
-10 -57 -62 0
-10 -58 -63 0
-10 -59 -64 0
-10 -60 -65 0
-11 -56 -66 0
-11 -57 -67 0
-11 -58 -68 0
-11 -59 -69 0
-11 -60 -70 0
-12 -56 -71 0
-12 -57 -72 0
-12 -58 -73 0
-12 -59 -74 0
-12 -60 -75 0
-13 -61 -66 0
-13 -62 -67 0
-13 -63 -68 0
-13 -64 -69 0
-13 -65 -70 0
-14 -61 -71 0
-14 -62 -72 0
-14 -63 -73 0
-14 -64 -74 0
-14 -65 -75 0
-15 -66 -71 0
-15 -67 -72 0
-15 -68 -73 0
-15 -69 -74 0
-15 -70 -75 0